c read Graph
c width = 2
c time = 167 ms
c width = 2
c time = 4292 ms
s td 16 3 18
b 1 1 2 11
b 2 2 3 12
b 3 3 4 13
b 4 4 5 14
b 5 5 6 15
b 6 6 7 16
b 7 7 8 17
b 8 8 9 18
b 9 8 17 18
b 10 7 16 17
b 11 6 15 16
b 12 5 14 15
b 13 4 13 14
b 14 3 12 13
b 15 2 11 12
b 16 1 10 11
1 16
1 15
2 15
2 14
3 14
3 13
4 13
4 12
5 12
5 11
6 11
6 10
7 10
7 9
8 9
